42613.3
42613.3
42545.7
42058.5
42058.5
41780.4
41351.8
40862.1
40862.1
40862.1
40862.1
40556.1
40556.1
40556.1
40556.1
40463
40463
39663.2
39635.8
39635.8
39635.8
39635.8
39452
39178.1
39063
38620.9
38620.9
38445.7
38445.7
38445.7
38445.7
37453.2
37453.2
37453.2
37453.2
37453.2
37367.8
37286.2
37286.2
37214.7
37214.7
37214.7
36668.5
36668.5
36668.5
36668.5
36668.5
36668.5
36668.5
36668.5
36668.5
36668.5
36668.5
36668.5
36371.4
36371.4
36371.4
36371.4
36371.4
36371.4
36371.4
36371.4
36371.4
36371.4
36371.4
36371.4
36371.4
36371.4
36371.4
36371.4
36371.4
36371.4
36371.4
36371.4
36371.4
36371.4
36346.8
36180.8
35731.3
35688.2
35688.2
35451.8
35451.8
35451.8
35451.8
35451.8
35451.8
35451.8
35451.8
35451.8
35330.9
35330.9
35330.9
35267.9
35267.9
34932.5
34826.8
34826.8
34826.8
34826.8
